NAME : zqloutput/eax-hard-simple-rescaleandround/50-11.tsp
TYPE : TSP
DIMENSION : 50
EDGE_WEIGHT_TYPE : EUC_2D
NODE_COORD_SECTION
1 136814 889797
2 225828 448062
3 118093 120074
4 81269 608100
5 700277 623436
6 933473 428884
7 416946 902121
8 124407 567618
9 36513 109691
10 227468 899489
11 149832 17977
12 494910 75978
13 591259 348149
14 726386 319791
15 503620 875098
16 918238 457332
17 842378 542863
18 203752 240298
19 846740 965375
20 723766 586309
21 465287 749938
22 614490 624833
23 29127 105198
24 731755 204298
25 453876 277057
26 260367 559645
27 503453 474282
28 110113 253226
29 354876 839196
30 931804 121363
31 596954 27201
32 522836 135178
33 669400 230964
34 645607 158820
35 319354 580514
36 471686 796587
37 534352 958556
38 218079 676861
39 962905 864697
40 416912 258557
41 79015 501045
42 339994 487346
43 549460 185513
44 257217 429535
45 473577 51547
46 176752 341853
47 95249 356711
48 299682 299451
49 405941 611944
50 941233 220494
EOF
